p td 120 119
0 1
0 3
0 8
0 46
0 50
0 68
0 95
0 100
0 116
1 2
1 4
1 12
1 16
1 18
1 42
1 55
1 57
1 58
1 106
1 115
2 5
2 9
2 11
2 13
2 15
2 22
2 35
2 61
2 67
2 69
2 84
2 89
2 98
2 119
3 33
3 65
4 29
4 32
4 118
5 6
5 7
5 20
5 26
5 30
5 44
5 47
5 72
5 73
6 27
6 60
6 62
6 93
8 10
8 14
8 17
8 24
8 39
8 41
8 78
8 79
8 83
8 94
8 97
9 28
9 34
9 64
10 21
10 25
10 37
10 40
10 45
10 71
11 49
11 113
12 31
12 38
12 52
12 53
12 63
12 80
12 85
12 86
12 88
14 54
16 19
19 36
19 74
19 90
20 23
20 51
21 56
23 48
23 91
23 117
24 59
28 111
29 101
30 43
30 66
30 75
30 76
30 103
31 77
31 87
31 96
40 109
43 70
46 112
53 102
53 108
62 107
65 104
66 99
69 114
75 81
75 82
82 110
87 105
91 92
